C8 H41 B40 Cu4 I3 S4
1.0
   12.7159996033   0.0000000000   0.0000000000
    0.0000000000  12.7159996033   0.0000000000
    0.0000000000   0.0000000000  39.8120002747
Cu I S B H C
16 16 16 160 168 32
Selective dynamics
Direct
0.163800001 0.836199999 0.750000000 T T T
0.836199999 0.163800001 0.250000000 T T T
0.663800001 0.663800001 0.500000000 T T T
0.336199999 0.336199999 0.000000000 T T T
0.180000007 0.637700021 0.717260003 T T T
0.819999993 0.362299979 0.217260003 T T T
0.862299979 0.680000007 0.467260003 T T T
0.137700021 0.319999993 0.967260003 T T T
0.319999993 0.137700021 0.032739997 T T T
0.680000007 0.862299979 0.532739997 T T T
0.637700021 0.180000007 0.282739997 T T T
0.362299979 0.819999993 0.782739997 T T T
0.374199986 0.625800014 0.750000000 T T T
0.625800014 0.374199986 0.250000000 T T T
0.874199986 0.874199986 0.500000000 T T T
0.125800014 0.125800014 0.000000000 T T T
0.312000006 0.888199985 0.683690012 F F F
0.687999964 0.111800015 0.183690012 F F F
0.611800015 0.812000036 0.433690012 F F F
0.388199985 0.187999994 0.933690012 F F F
0.187999994 0.388199985 0.066309988 F F F
0.812000036 0.611800015 0.566309988 F F F
0.888199985 0.312000006 0.316309988 F F F
0.111800015 0.687999964 0.816309988 F F F
0.084899999 0.447299987 0.756160021 F F F
0.915099978 0.552700043 0.256160021 F F F
0.052700013 0.584900022 0.506160021 F F F
0.947299957 0.415100008 0.006160021 F F F
0.415100008 0.947299957 0.993839979 F F F
0.584900022 0.052700013 0.493839979 F F F
0.447299987 0.084899999 0.243839979 F F F
0.552700043 0.915099978 0.743839979 F F F
0.051500000 0.749599993 0.719399989 F F F
0.948499978 0.250400007 0.219399989 F F F
0.750400007 0.551500022 0.469399989 F F F
0.249599993 0.448500007 0.969399989 F F F
0.448500007 0.249599993 0.030600011 F F F
0.551500022 0.750400007 0.530600011 F F F
0.749599993 0.051500000 0.280600011 F F F
0.250400007 0.948499978 0.780600011 F F F
0.322499990 0.556500018 0.702799976 F F F
0.677500010 0.443499982 0.202799976 F F F
0.943499982 0.822499990 0.452799976 F F F
0.056500018 0.177500010 0.952799976 F F F
0.177500010 0.056500018 0.047200024 F F F
0.822499990 0.943499982 0.547200024 F F F
0.556500018 0.322499990 0.297200024 F F F
0.443499982 0.677500010 0.797200024 F F F
0.940999985 0.865999997 0.661700010 F F F
0.059000000 0.134000003 0.161700010 F F F
0.634000003 0.440999985 0.411700010 F F F
0.365999997 0.559000015 0.911700010 F F F
0.559000015 0.365999997 0.088299990 F F F
0.440999985 0.634000003 0.588299990 F F F
0.865999997 0.940999985 0.338299990 F F F
0.134000003 0.059000000 0.838299990 F F F
0.048000000 0.945999980 0.670700014 F F F
0.952000022 0.054000020 0.170700014 F F F
0.554000020 0.547999978 0.420700014 F F F
0.445999980 0.451999992 0.920700014 F F F
0.451999992 0.445999980 0.079299986 F F F
0.547999978 0.554000020 0.579299986 F F F
0.945999980 0.048000000 0.329299986 F F F
0.054000020 0.952000022 0.829299986 F F F
0.152999997 0.857999980 0.615300000 F F F
0.847000003 0.142000020 0.115300000 F F F
0.642000020 0.652999997 0.365300000 F F F
0.357999980 0.347000003 0.865300000 F F F
0.347000003 0.357999980 0.134700000 F F F
0.652999997 0.642000020 0.634700000 F F F
0.857999980 0.152999997 0.384700000 F F F
0.142000020 0.847000003 0.884700000 F F F
0.115999997 0.757000029 0.642000020 F F F
0.884000003 0.242999971 0.142000020 F F F
0.742999971 0.615999997 0.392000020 F F F
0.257000029 0.384000003 0.892000020 F F F
0.384000003 0.257000029 0.107999980 F F F
0.615999997 0.742999971 0.607999980 F F F
0.757000029 0.115999997 0.357999980 F F F
0.242999971 0.884000003 0.857999980 F F F
0.984000027 0.749000013 0.644200027 F F F
0.016000001 0.250999987 0.144200027 F F F
0.750999987 0.483999997 0.394200027 F F F
0.249000013 0.515999973 0.894200027 F F F
0.515999973 0.249000013 0.105799973 F F F
0.483999997 0.750999987 0.605799973 F F F
0.749000013 0.984000027 0.355799973 F F F
0.250999987 0.016000001 0.855799973 F F F
0.046000000 0.777999997 0.606199980 F F F
0.953999996 0.222000003 0.106199980 F F F
0.722000003 0.546000004 0.356199980 F F F
0.277999997 0.453999996 0.856199980 F F F
0.453999996 0.277999997 0.143800020 F F F
0.546000004 0.722000003 0.643800020 F F F
0.777999997 0.046000000 0.393800020 F F F
0.222000003 0.953999996 0.893800020 F F F
0.972999990 0.967999995 0.635399997 F F F
0.027000001 0.032000005 0.135399997 F F F
0.532000005 0.472999990 0.385399997 F F F
0.467999995 0.527000010 0.885399997 F F F
0.527000010 0.467999995 0.114600003 F F F
0.472999990 0.532000005 0.614600003 F F F
0.967999995 0.972999990 0.364600003 F F F
0.032000005 0.027000001 0.864600003 F F F
0.109999999 0.976000011 0.632900000 F F F
0.889999986 0.023999989 0.132900000 F F F
0.523999989 0.610000014 0.382900000 F F F
0.476000011 0.389999986 0.882900000 F F F
0.389999986 0.476000011 0.117100000 F F F
0.610000014 0.523999989 0.617100000 F F F
0.976000011 0.109999999 0.367100000 F F F
0.023999989 0.889999986 0.867100000 F F F
0.155000001 0.875999987 0.657599986 F F F
0.845000029 0.124000013 0.157599986 F F F
0.624000013 0.654999971 0.407599986 F F F
0.375999987 0.344999999 0.907599986 F F F
0.344999999 0.375999987 0.092400014 F F F
0.654999971 0.624000013 0.592400014 F F F
0.875999987 0.155000001 0.342400014 F F F
0.124000013 0.845000029 0.842400014 F F F
0.052000001 0.810000002 0.676299989 F F F
0.948000014 0.189999998 0.176299989 F F F
0.689999998 0.551999986 0.426299989 F F F
0.310000002 0.448000014 0.926299989 F F F
0.448000014 0.310000002 0.073700011 F F F
0.551999986 0.689999998 0.573700011 F F F
0.810000002 0.052000001 0.323700011 F F F
0.189999998 0.948000014 0.823700011 F F F
0.317000002 0.412000000 0.716799974 F F F
0.682999969 0.588000000 0.216799974 F F F
0.088000000 0.817000031 0.466799974 F F F
0.912000000 0.182999998 0.966799974 F F F
0.182999998 0.912000000 0.033200026 F F F
0.817000031 0.088000000 0.533200026 F F F
0.412000000 0.317000002 0.283200026 F F F
0.588000000 0.682999969 0.783200026 F F F
0.337000012 0.367000014 0.756900012 F F F
0.662999988 0.633000016 0.256900012 F F F
0.132999986 0.837000012 0.506900012 F F F
0.866999984 0.162999988 0.006900012 F F F
0.162999988 0.866999984 0.993099988 F F F
0.837000012 0.132999986 0.493099988 F F F
0.367000014 0.337000012 0.243099988 F F F
0.633000016 0.662999988 0.743099988 F F F
0.233999997 0.324000001 0.696500003 F F F
0.766000032 0.675999999 0.196500003 F F F
0.175999999 0.733999968 0.446500003 F F F
0.824000001 0.266000003 0.946500003 F F F
0.266000003 0.824000001 0.053499997 F F F
0.733999968 0.175999999 0.553499997 F F F
0.324000001 0.233999997 0.303499997 F F F
0.675999999 0.766000032 0.803499997 F F F
0.367000014 0.317999989 0.689499974 F F F
0.633000016 0.682000041 0.189499974 F F F
0.182000011 0.866999984 0.439499974 F F F
0.817999959 0.132999986 0.939499974 F F F
0.132999986 0.817999959 0.060500026 F F F
0.866999984 0.182000011 0.560500026 F F F
0.317999989 0.367000014 0.310500026 F F F
0.682000041 0.633000016 0.810500026 F F F
0.201000005 0.224999994 0.725199997 F F F
0.799000025 0.774999976 0.225199997 F F F
0.275000006 0.700999975 0.475199997 F F F
0.725000024 0.298999995 0.975199997 F F F
0.298999995 0.725000024 0.024800003 F F F
0.700999975 0.275000006 0.524800003 F F F
0.224999994 0.201000005 0.274800003 F F F
0.774999976 0.799000025 0.774800003 F F F
0.294999987 0.203999996 0.694700003 F F F
0.705000043 0.796000004 0.194700003 F F F
0.296000004 0.794999957 0.444700003 F F F
0.703999996 0.205000013 0.944700003 F F F
0.205000013 0.703999996 0.055299997 F F F
0.794999957 0.296000004 0.555299997 F F F
0.203999996 0.294999987 0.305299997 F F F
0.796000004 0.705000043 0.805299997 F F F
0.432000011 0.344999999 0.726700008 F F F
0.567999959 0.654999971 0.226700008 F F F
0.155000001 0.932000041 0.476700008 F F F
0.845000029 0.067999989 0.976700008 F F F
0.067999989 0.845000029 0.023299992 F F F
0.932000041 0.155000001 0.523299992 F F F
0.344999999 0.432000011 0.273299992 F F F
0.654999971 0.567999959 0.773299992 F F F
0.398999989 0.246999994 0.755299985 F F F
0.601000011 0.753000021 0.255299985 F F F
0.253000021 0.898999989 0.505299985 F F F
0.746999979 0.101000011 0.005299985 F F F
0.101000011 0.746999979 0.994700015 F F F
0.898999989 0.253000021 0.494700015 F F F
0.246999994 0.398999989 0.244700015 F F F
0.753000021 0.601000011 0.744700015 F F F
0.266000003 0.252999991 0.762300014 F F F
0.733999968 0.746999979 0.262300014 F F F
0.247000009 0.766000032 0.512300014 F F F
0.753000021 0.233999997 0.012300014 F F F
0.233999997 0.753000021 0.987699986 F F F
0.766000032 0.247000009 0.487699986 F F F
0.252999991 0.266000003 0.237699986 F F F
0.746999979 0.733999968 0.737699986 F F F
0.215000004 0.354000002 0.738600016 F F F
0.784999967 0.646000028 0.238600016 F F F
0.145999998 0.715000033 0.488600016 F F F
0.853999972 0.284999996 0.988600016 F F F
0.284999996 0.853999972 0.011399984 F F F
0.715000033 0.145999998 0.511399984 F F F
0.354000002 0.215000004 0.261399984 F F F
0.646000028 0.784999967 0.761399984 F F F
0.868578017 0.869476974 0.677506983 F F F
0.131421998 0.130523026 0.177506983 F F F
0.630523026 0.368578017 0.427506983 F F F
0.369476974 0.631421983 0.927506983 F F F
0.631421983 0.369476974 0.072493017 F F F
0.368578017 0.630523026 0.572493017 F F F
0.869476974 0.868578017 0.322493017 F F F
0.130523026 0.131421998 0.822493017 F F F
0.050032999 0.002264977 0.692341030 F F F
0.949967027 0.997735023 0.192341030 F F F
0.497735023 0.550032973 0.442341030 F F F
0.502264977 0.449966997 0.942341030 F F F
0.449966997 0.502264977 0.057658970 F F F
0.550032973 0.497735023 0.557658970 F F F
0.002264977 0.050032999 0.307658970 F F F
0.997735023 0.949967027 0.807658970 F F F
0.860481977 0.837194026 0.605624020 F F F
0.139517993 0.162805974 0.105624020 F F F
0.662805974 0.360482007 0.355624020 F F F
0.337194026 0.639518023 0.855624020 F F F
0.639518023 0.337194026 0.144375980 F F F
0.360482007 0.662805974 0.644375980 F F F
0.837194026 0.860481977 0.394375980 F F F
0.162805974 0.139517993 0.894375980 F F F
0.032990001 0.949227989 0.577511013 F F F
0.967010021 0.050772011 0.077511013 F F F
0.550772011 0.532989979 0.327511013 F F F
0.449227989 0.467009991 0.827511013 F F F
0.467009991 0.449227989 0.172488987 F F F
0.532989979 0.550772011 0.672488987 F F F
0.949227989 0.032990001 0.422488987 F F F
0.050772011 0.967010021 0.922488987 F F F
0.225511998 0.854686975 0.599510014 F F F
0.774487972 0.145313025 0.099510014 F F F
0.645313025 0.725512028 0.349510014 F F F
0.354686975 0.274488002 0.849510014 F F F
0.274488002 0.354686975 0.150489986 F F F
0.725512028 0.645313025 0.650489986 F F F
0.854686975 0.225511998 0.400489986 F F F
0.145313025 0.774487972 0.900489986 F F F
0.165374994 0.684226990 0.644635022 F F F
0.834625006 0.315773010 0.144635022 F F F
0.815773010 0.665374994 0.394635022 F F F
0.184226990 0.334625006 0.894635022 F F F
0.334625006 0.184226990 0.105364978 F F F
0.665374994 0.815773010 0.605364978 F F F
0.684226990 0.165374994 0.355364978 F F F
0.315773010 0.834625006 0.855364978 F F F
0.941551983 0.673116028 0.648084998 F F F
0.058448002 0.326883972 0.148084998 F F F
0.826883972 0.441551983 0.398084998 F F F
0.173116028 0.558448017 0.898084998 F F F
0.558448017 0.173116028 0.101915002 F F F
0.441551983 0.826883972 0.601915002 F F F
0.673116028 0.941551983 0.351915002 F F F
0.326883972 0.058448002 0.851915002 F F F
0.045875002 0.722723007 0.584271014 F F F
0.954124987 0.277276993 0.084271014 F F F
0.777276993 0.545875013 0.334271014 F F F
0.222723007 0.454124987 0.834271014 F F F
0.454124987 0.222723007 0.165728986 F F F
0.545875013 0.777276993 0.665728986 F F F
0.722723007 0.045875002 0.415728986 F F F
0.277276993 0.954124987 0.915728986 F F F
0.921550989 0.039258003 0.632821977 F F F
0.078449003 0.960741997 0.132821977 F F F
0.460741997 0.421550989 0.382821977 F F F
0.539258003 0.578449011 0.882821977 F F F
0.578449011 0.539258003 0.117178023 F F F
0.421550989 0.460741997 0.617178023 F F F
0.039258003 0.921550989 0.367178023 F F F
0.960741997 0.078449003 0.867178023 F F F
0.153234005 0.051323056 0.628811002 F F F
0.846765995 0.948676944 0.128811002 F F F
0.448676944 0.653234005 0.378811002 F F F
0.551323056 0.346765995 0.878811002 F F F
0.346765995 0.551323056 0.121188998 F F F
0.653234005 0.448676944 0.621188998 F F F
0.051323056 0.153234005 0.371188998 F F F
0.948676944 0.846765995 0.871188998 F F F
0.350887001 0.423148006 0.778105974 F F F
0.649112999 0.576851964 0.278105974 F F F
0.076851994 0.850887001 0.528105974 F F F
0.923148036 0.149112999 0.028105974 F F F
0.149112999 0.923148036 0.971894026 F F F
0.850887001 0.076851994 0.471894026 F F F
0.423148006 0.350887001 0.221894026 F F F
0.576851964 0.649112999 0.721894026 F F F
0.177829996 0.350073993 0.676415980 F F F
0.822170019 0.649926007 0.176415980 F F F
0.149926007 0.677829981 0.426415980 F F F
0.850073993 0.322170019 0.926415980 F F F
0.322170019 0.850073993 0.073584020 F F F
0.677829981 0.149926007 0.573584020 F F F
0.350073993 0.177829996 0.323584020 F F F
0.649926007 0.822170019 0.823584020 F F F
0.402103007 0.340649009 0.664676011 F F F
0.597896993 0.659350991 0.164676011 F F F
0.159350991 0.902103007 0.414676011 F F F
0.840649009 0.097896993 0.914676011 F F F
0.097896993 0.840649009 0.085323989 F F F
0.902103007 0.159350991 0.585323989 F F F
0.340649009 0.402103007 0.335323989 F F F
0.659350991 0.597896993 0.835323989 F F F
0.486793995 0.170892000 0.704741001 F F F
0.513206005 0.829108000 0.204741001 F F F
0.329108000 0.986793995 0.454741001 F F F
0.670892000 0.013206005 0.954741001 F F F
0.013206005 0.670892000 0.045258999 F F F
0.986793995 0.329108000 0.545258999 F F F
0.170892000 0.486793995 0.295258999 F F F
0.829108000 0.513206005 0.795258999 F F F
0.315712988 0.077100001 0.741423011 F F F
0.684287012 0.922900021 0.241423011 F F F
0.422899991 0.815712988 0.491423011 F F F
0.577099979 0.184287012 0.991423011 F F F
0.184287012 0.577099979 0.008576989 F F F
0.815712988 0.422899991 0.508576989 F F F
0.077100001 0.315712988 0.258576989 F F F
0.922900021 0.684287012 0.758576989 F F F
0.123521000 0.183568001 0.724772990 F F F
0.876479030 0.816431999 0.224772990 F F F
0.316431999 0.623520970 0.474772990 F F F
0.683568001 0.376479000 0.974772990 F F F
0.376479000 0.683568001 0.025227010 F F F
0.623520970 0.316431999 0.525227010 F F F
0.183568001 0.123521000 0.275227010 F F F
0.816431999 0.876479030 0.775227010 F F F
0.280717999 0.147424996 0.673498988 F F F
0.719282031 0.852575004 0.173498988 F F F
0.352575004 0.780717969 0.423498988 F F F
0.647424996 0.219282001 0.923498988 F F F
0.219282001 0.647424996 0.076501012 F F F
0.780717969 0.352575004 0.576501012 F F F
0.147424996 0.280717999 0.326501012 F F F
0.852575004 0.719282031 0.826501012 F F F
0.510452986 0.384609014 0.727159977 F F F
0.489547014 0.615391016 0.227159977 F F F
0.115390986 0.010452986 0.477159977 F F F
0.884608984 0.989547014 0.977159977 F F F
0.989547014 0.884608984 0.022840023 F F F
0.010452986 0.115390986 0.522840023 F F F
0.384609014 0.510452986 0.272840023 F F F
0.615391016 0.489547014 0.772840023 F F F
0.455348015 0.221167997 0.775322020 F F F
0.544651985 0.778832018 0.275322020 F F F
0.278832018 0.955348015 0.525322020 F F F
0.721167982 0.044651985 0.025322020 F F F
0.044651985 0.721167982 0.974677980 F F F
0.955348015 0.278832018 0.474677980 F F F
0.221167997 0.455348015 0.224677980 F F F
0.778832018 0.544651985 0.724677980 F F F
0.231597006 0.230900005 0.787150025 F F F
0.768402994 0.769100010 0.287150025 F F F
0.269100010 0.731597006 0.537150025 F F F
0.730899990 0.268402994 0.037150025 F F F
0.268402994 0.730899990 0.962849975 F F F
0.731597006 0.269100010 0.462849975 F F F
0.230900005 0.231597006 0.212849975 F F F
0.769100010 0.768402994 0.712849975 F F F
0.144260004 0.400431007 0.746930003 F F F
0.855740011 0.599568963 0.246930003 F F F
0.099568993 0.644259989 0.496930003 F F F
0.900431037 0.355740011 0.996930003 F F F
0.355740011 0.900431037 0.003069997 F F F
0.644259989 0.099568993 0.503069997 F F F
0.400431007 0.144260004 0.253069997 F F F
0.599568963 0.855740011 0.753069997 F F F
0.936999977 0.847000003 0.619300008 F F F
0.063000001 0.152999997 0.119300008 F F F
0.652999997 0.437000006 0.369300008 F F F
0.347000003 0.563000023 0.869300008 F F F
0.563000023 0.347000003 0.130699992 F F F
0.437000006 0.652999997 0.630699992 F F F
0.847000003 0.936999977 0.380699992 F F F
0.152999997 0.063000001 0.880699992 F F F
0.039000001 0.912999988 0.602999985 F F F
0.961000025 0.087000012 0.102999985 F F F
0.587000012 0.538999975 0.352999985 F F F
0.412999988 0.460999995 0.852999985 F F F
0.460999995 0.412999988 0.147000015 F F F
0.538999975 0.587000012 0.647000015 F F F
0.912999988 0.039000001 0.397000015 F F F
0.087000012 0.961000025 0.897000015 F F F
0.416999996 0.715000033 0.716500044 F F F
0.583000004 0.284999967 0.216500044 F F F
0.184999973 0.584999979 0.466500044 F F F
0.815000057 0.415000021 0.966500044 F F F
0.415000021 0.815000057 0.033499956 F F F
0.584999979 0.184999973 0.533499956 F F F
0.715000033 0.416999996 0.283499956 F F F
0.284999967 0.583000004 0.783499956 F F F
0.715000033 0.145999998 0.511399984 F F F
0.354000002 0.215000004 0.261399984 F F F
0.646000028 0.784999967 0.761399984 F F F
0.868578017 0.869476974 0.677506983 F F F
0.131421998 0.130523026 0.177506983 F F F
0.630523026 0.368578017 0.427506983 F F F
0.369476974 0.631421983 0.927506983 F F F
0.631421983 0.369476974 0.072493017 F F F
0.368578017 0.630523026 0.572493017 F F F
0.869476974 0.868578017 0.322493017 F F F
0.130523026 0.131421998 0.822493017 F F F
0.050032999 0.002264977 0.692341030 F F F
0.949967027 0.997735023 0.192341030 F F F
0.497735023 0.550032973 0.442341030 F F F
0.502264977 0.449966997 0.942341030 F F F
0.449966997 0.502264977 0.057658970 F F F
0.550032973 0.497735023 0.557658970 F F F
0.002264977 0.050032999 0.307658970 F F F
0.997735023 0.949967027 0.807658970 F F F
0.860481977 0.837194026 0.605624020 F F F
0.139517993 0.162805974 0.105624020 F F F
0.662805974 0.360482007 0.355624020 F F F
0.337194026 0.639518023 0.855624020 F F F
0.639518023 0.337194026 0.144375980 F F F
0.360482007 0.662805974 0.644375980 F F F
0.837194026 0.860481977 0.394375980 F F F
0.162805974 0.139517993 0.894375980 F F F
0.032990001 0.949227989 0.577511013 F F F
0.967010021 0.050772011 0.077511013 F F F
0.550772011 0.532989979 0.327511013 F F F
0.449227989 0.467009991 0.827511013 F F F
0.467009991 0.449227989 0.172488987 F F F
0.532989979 0.550772011 0.672488987 F F F
0.949227989 0.032990001 0.422488987 F F F
0.050772011 0.967010021 0.922488987 F F F
0.225511998 0.854686975 0.599510014 F F F
0.774487972 0.145313025 0.099510014 F F F
0.645313025 0.725512028 0.349510014 F F F
0.354686975 0.274488002 0.849510014 F F F
0.274488002 0.354686975 0.150489986 F F F
0.725512028 0.645313025 0.650489986 F F F
0.854686975 0.225511998 0.400489986 F F F
0.145313025 0.774487972 0.900489986 F F F
0.165374994 0.684226990 0.644635022 F F F
0.834625006 0.315773010 0.144635022 F F F
0.815773010 0.665374994 0.394635022 F F F
0.184226990 0.334625006 0.894635022 F F F
0.334625006 0.184226990 0.105364978 F F F
0.665374994 0.815773010 0.605364978 F F F
0.684226990 0.165374994 0.355364978 F F F
0.315773010 0.834625006 0.855364978 F F F
0.941551983 0.673116028 0.648084998 F F F
0.058448002 0.326883972 0.148084998 F F F
0.826883972 0.441551983 0.398084998 F F F
0.173116028 0.558448017 0.898084998 F F F
0.558448017 0.173116028 0.101915002 F F F
0.441551983 0.826883972 0.601915002 F F F
0.673116028 0.941551983 0.351915002 F F F
0.326883972 0.058448002 0.851915002 F F F
0.045875002 0.722723007 0.584271014 F F F
0.954124987 0.277276993 0.084271014 F F F
0.777276993 0.545875013 0.334271014 F F F
0.222723007 0.454124987 0.834271014 F F F
0.454124987 0.222723007 0.165728986 F F F
0.545875013 0.777276993 0.665728986 F F F
0.722723007 0.045875002 0.415728986 F F F
0.277276993 0.954124987 0.915728986 F F F
0.921550989 0.039258003 0.632821977 F F F
0.078449003 0.960741997 0.132821977 F F F
0.460741997 0.421550989 0.382821977 F F F
0.539258003 0.578449011 0.882821977 F F F
0.578449011 0.539258003 0.117178023 F F F
0.421550989 0.460741997 0.617178023 F F F
0.039258003 0.921550989 0.367178023 F F F
0.960741997 0.078449003 0.867178023 F F F
0.153234005 0.051323056 0.628811002 F F F
0.846765995 0.948676944 0.128811002 F F F
0.448676944 0.653234005 0.378811002 F F F
0.551323056 0.346765995 0.878811002 F F F
0.346765995 0.551323056 0.121188998 F F F
0.653234005 0.448676944 0.621188998 F F F
0.051323056 0.153234005 0.371188998 F F F
0.948676944 0.846765995 0.871188998 F F F
0.350887001 0.423148006 0.778105974 F F F
0.649112999 0.576851964 0.278105974 F F F
0.076851994 0.850887001 0.528105974 F F F
0.923148036 0.149112999 0.028105974 F F F
0.149112999 0.923148036 0.971894026 F F F
0.850887001 0.076851994 0.471894026 F F F
0.423148006 0.350887001 0.221894026 F F F
0.576851964 0.649112999 0.721894026 F F F
0.177829996 0.350073993 0.676415980 F F F
0.822170019 0.649926007 0.176415980 F F F
0.149926007 0.677829981 0.426415980 F F F
0.850073993 0.322170019 0.926415980 F F F
0.322170019 0.850073993 0.073584020 F F F
0.677829981 0.149926007 0.573584020 F F F
0.350073993 0.177829996 0.323584020 F F F
0.649926007 0.822170019 0.823584020 F F F
0.402103007 0.340649009 0.664676011 F F F
0.597896993 0.659350991 0.164676011 F F F
0.159350991 0.902103007 0.414676011 F F F
0.840649009 0.097896993 0.914676011 F F F
0.097896993 0.840649009 0.085323989 F F F
0.902103007 0.159350991 0.585323989 F F F
0.340649009 0.402103007 0.335323989 F F F
0.659350991 0.597896993 0.835323989 F F F
0.486793995 0.170892000 0.704741001 F F F
0.513206005 0.829108000 0.204741001 F F F
0.329108000 0.986793995 0.454741001 F F F
0.670892000 0.013206005 0.954741001 F F F
0.013206005 0.670892000 0.045258999 F F F
0.986793995 0.329108000 0.545258999 F F F
0.170892000 0.486793995 0.295258999 F F F
0.829108000 0.513206005 0.795258999 F F F
0.315712988 0.077100001 0.741423011 F F F
0.684287012 0.922900021 0.241423011 F F F
0.422899991 0.815712988 0.491423011 F F F
0.577099979 0.184287012 0.991423011 F F F
0.184287012 0.577099979 0.008576989 F F F
0.815712988 0.422899991 0.508576989 F F F
0.077100001 0.315712988 0.258576989 F F F
0.922900021 0.684287012 0.758576989 F F F
0.123521000 0.183568001 0.724772990 F F F
0.876479030 0.816431999 0.224772990 F F F
0.316431999 0.623520970 0.474772990 F F F
0.683568001 0.376479000 0.974772990 F F F
0.376479000 0.683568001 0.025227010 F F F
0.623520970 0.316431999 0.525227010 F F F
0.183568001 0.123521000 0.275227010 F F F
0.816431999 0.876479030 0.775227010 F F F
0.280717999 0.147424996 0.673498988 F F F
0.719282031 0.852575004 0.173498988 F F F
0.352575004 0.780717969 0.423498988 F F F
0.647424996 0.219282001 0.923498988 F F F
0.219282001 0.647424996 0.076501012 F F F
0.780717969 0.352575004 0.576501012 F F F
0.147424996 0.280717999 0.326501012 F F F
0.852575004 0.719282031 0.826501012 F F F
0.510452986 0.384609014 0.727159977 F F F
0.489547014 0.615391016 0.227159977 F F F
0.115390986 0.010452986 0.477159977 F F F
0.884608984 0.989547014 0.977159977 F F F
0.989547014 0.884608984 0.022840023 F F F
0.010452986 0.115390986 0.522840023 F F F
0.384609014 0.510452986 0.272840023 F F F
0.615391016 0.489547014 0.772840023 F F F
0.455348015 0.221167997 0.775322020 F F F
0.544651985 0.778832018 0.275322020 F F F
0.278832018 0.955348015 0.525322020 F F F
0.721167982 0.044651985 0.025322020 F F F
0.044651985 0.721167982 0.974677980 F F F
0.955348015 0.278832018 0.474677980 F F F
0.221167997 0.455348015 0.224677980 F F F
0.778832018 0.544651985 0.724677980 F F F
0.231597006 0.230900005 0.787150025 F F F
0.768402994 0.769100010 0.287150025 F F F
0.269100010 0.731597006 0.537150025 F F F
0.730899990 0.268402994 0.037150025 F F F
0.268402994 0.730899990 0.962849975 F F F
0.731597006 0.269100010 0.462849975 F F F
0.230900005 0.231597006 0.212849975 F F F
0.769100010 0.768402994 0.712849975 F F F
0.144260004 0.400431007 0.746930003 F F F
0.855740011 0.599568963 0.246930003 F F F
0.099568993 0.644259989 0.496930003 F F F
0.900431037 0.355740011 0.996930003 F F F
0.355740011 0.900431037 0.003069997 F F F
0.644259989 0.099568993 0.503069997 F F F
0.400431007 0.144260004 0.253069997 F F F
0.599568963 0.855740011 0.753069997 F F F
0.936999977 0.847000003 0.619300008 F F F
0.063000001 0.152999997 0.119300008 F F F
0.652999997 0.437000006 0.369300008 F F F
0.347000003 0.563000023 0.869300008 F F F
0.563000023 0.347000003 0.130699992 F F F
0.437000006 0.652999997 0.630699992 F F F
0.847000003 0.936999977 0.380699992 F F F
0.152999997 0.063000001 0.880699992 F F F
0.039000001 0.912999988 0.602999985 F F F
0.961000025 0.087000012 0.102999985 F F F
0.587000012 0.538999975 0.352999985 F F F
0.412999988 0.460999995 0.852999985 F F F
0.460999995 0.412999988 0.147000015 F F F
0.538999975 0.587000012 0.647000015 F F F
0.912999988 0.039000001 0.397000015 F F F
0.087000012 0.961000025 0.897000015 F F F
0.416999996 0.217999995 0.713400006 F F F
0.583000004 0.782000005 0.213400006 F F F
0.282000005 0.916999996 0.463400006 F F F
0.717999995 0.083000004 0.963400006 F F F
0.083000004 0.717999995 0.036599994 F F F
0.916999996 0.282000005 0.536599994 F F F
0.217999995 0.416999996 0.286599994 F F F
0.782000005 0.583000004 0.786599994 F F F
0.316000015 0.163000003 0.735099971 F F F
0.684000015 0.837000012 0.235099971 F F F
0.337000012 0.815999985 0.485099971 F F F
0.662999988 0.183999985 0.985099971 F F F
0.183999985 0.662999988 0.014900029 F F F
0.815999985 0.337000012 0.514900029 F F F
0.163000003 0.316000015 0.264900029 F F F
0.837000012 0.684000015 0.764900029 F F F
